<number of tasks>
70

<cycle time>
160

<task times>
1 17
2 66
3 54
4 52
5 6
6 88
7 21
8 128
9 68
10 70
11 85
12 21
13 134
14 135
15 94
16 90
17 50
18 143
19 19
20 54
21 50
22 40
23 73
24 12
25 152
26 42
27 45
28 74
29 26
30 11
31 31
32 50
33 102
34 46
35 35
36 40
37 2
38 1
39 3
40 13
41 16
42 25
43 21
44 43
45 30
46 83
47 89
48 56
49 59
50 43
51 11
52 26
53 44
54 121
55 38
56 68
57 22
58 7
59 16
60 32
61 25
62 27
63 156
64 28
65 15
66 26
67 18
68 72
69 23
70 27

<precedence relations>
1,2
1,41
1,69
1,70
2,3
3,4
3,68
4,6
4,7
5,6
5,24
5,30
6,8
7,8
8,12
9,10
10,11
11,12
12,13
12,14
13,23
14,23
15,16
16,17
16,18
17,19
18,19
19,20
19,22
19,57
20,21
21,23
22,23
23,25
23,31
23,33
24,25
25,26
25,27
25,28
25,29
26,35
27,35
28,35
29,35
30,31
31,32
32,35
33,34
34,35
35,36
35,44
35,48
35,51
35,53
35,56
35,60
35,61
35,62
36,37
37,38
38,39
39,40
40,42
41,42
42,43
43,50
44,45
45,46
46,47
47,50
48,49
49,50
51,52
52,54
53,54
54,55
57,58
58,59
59,60
61,65
62,63
63,64
64,65
64,66
64,67

<setup times forward>
1,9:4
1,10:3
1,15:10
1,16:4
1,17:3
1,18:9
1,19:6
1,20:11
1,21:11
1,22:11
1,30:10
1,41:3
1,57:4
1,58:11
1,59:7
1,70:5
2,9:4
2,10:3
2,15:10
2,16:4
2,17:3
2,18:9
2,19:6
2,20:11
2,21:11
2,22:11
2,30:10
2,41:3
2,57:4
2,58:11
2,59:7
2,70:5
3,4:10
3,9:4
3,10:3
3,15:10
3,16:4
3,17:3
3,18:9
3,19:6
3,20:11
3,21:11
3,22:11
3,30:10
3,41:3
3,57:4
3,58:11
3,59:7
3,68:4
3,70:5
4,5:10
4,6:6
4,7:7
4,9:14
4,10:7
4,11:10
4,16:14
4,17:7
4,18:19
4,19:4
4,20:21
4,21:21
4,22:21
4,24:10
4,41:7
4,57:14
4,58:21
4,59:3
4,68:6
4,69:10
4,70:15
5,4:10
5,6:4
5,7:3
5,9:4
5,10:3
5,15:10
5,16:4
5,17:3
5,18:9
5,19:6
5,20:11
5,21:11
5,22:11
5,30:10
5,41:3
5,57:4
5,58:11
5,59:7
5,68:4
5,70:5
6,7:1
6,8:9
6,9:8
6,10:1
6,11:4
6,15:6
6,16:8
6,17:1
6,18:13
6,19:2
6,20:15
6,21:15
6,22:15
6,24:4
6,30:6
6,41:1
6,57:8
6,58:15
6,59:3
6,69:4
6,70:9
7,5:3
7,6:1
7,8:8
7,9:7
7,11:3
7,15:7
7,16:7
7,18:12
7,19:3
7,20:14
7,21:14
7,22:14
7,24:3
7,30:7
7,57:7
7,58:14
7,59:4
7,68:1
7,69:3
7,70:8
8,9:1
8,10:8
8,11:5
8,12:5
8,15:15
8,16:1
8,17:8
8,18:4
8,19:11
8,20:6
8,21:6
8,22:6
8,24:5
8,30:15
8,41:8
8,57:1
8,58:6
8,59:12
8,68:9
8,69:5
9,1:4
9,2:4
9,3:4
9,4:14
9,5:4
9,6:8
9,7:7
9,8:1
9,10:7
9,15:14
9,17:7
9,18:5
9,19:10
9,20:7
9,21:7
9,22:7
9,24:4
9,30:14
9,41:7
9,58:7
9,59:11
9,68:8
9,69:4
9,70:1
10,1:3
10,2:3
10,3:3
10,4:7
10,5:3
10,6:1
10,8:8
10,11:3
10,15:7
10,16:7
10,18:12
10,19:3
10,20:14
10,21:14
10,22:14
10,24:3
10,30:7
10,57:7
10,58:14
10,59:4
10,68:1
10,69:3
10,70:8
11,4:10
11,6:4
11,7:3
11,8:5
11,15:10
11,16:4
11,17:3
11,18:9
11,19:6
11,20:11
11,21:11
11,22:11
11,30:10
11,41:3
11,57:4
11,58:11
11,59:7
11,68:4
11,70:5
12,13:4
12,14:6
12,15:10
12,16:4
12,17:3
12,18:9
12,19:6
12,20:11
12,21:11
12,22:11
12,30:10
12,41:3
12,57:4
12,58:11
12,59:7
12,68:4
12,70:5
13,14:10
13,15:14
13,17:7
13,18:5
13,19:10
13,20:7
13,21:7
13,22:7
13,23:3
13,24:4
13,30:14
13,41:7
13,58:7
13,59:11
13,68:8
13,69:4
13,70:1
14,13:10
14,15:4
14,16:10
14,17:3
14,18:15
14,20:17
14,21:17
14,22:17
14,23:7
14,24:6
14,30:4
14,41:3
14,57:10
14,58:17
14,59:1
14,68:2
14,69:6
14,70:11
15,1:10
15,2:10
15,3:10
15,5:10
15,6:6
15,7:7
15,8:15
15,9:14
15,10:7
15,11:10
15,12:10
15,13:14
15,14:4
15,16:14
15,24:10
15,41:7
15,68:6
15,69:10
15,70:15
16,1:4
16,2:4
16,3:4
16,4:14
16,5:4
16,6:8
16,7:7
16,8:1
16,10:7
16,11:4
16,12:4
16,14:10
16,17:7
16,18:5
16,24:4
16,30:14
16,41:7
16,68:8
16,69:4
16,70:1
17,1:3
17,2:3
17,3:3
17,4:7
17,5:3
17,6:1
17,8:8
17,9:7
17,11:3
17,12:3
17,13:7
17,14:3
17,18:12
17,19:3
17,24:3
17,30:7
17,68:1
17,69:3
17,70:8
18,1:9
18,2:9
18,3:9
18,4:19
18,5:9
18,6:13
18,7:12
18,8:4
18,9:5
18,10:12
18,11:9
18,12:9
18,13:5
18,14:15
18,17:12
18,19:15
18,24:9
18,30:19
18,41:12
18,68:13
18,69:9
18,70:4
19,1:6
19,2:6
19,3:6
19,4:4
19,5:6
19,6:2
19,7:3
19,8:11
19,9:10
19,10:3
19,11:6
19,12:6
19,13:10
19,20:17
19,22:17
19,24:6
19,30:4
19,41:3
19,57:10
19,68:2
19,69:6
19,70:11
20,1:11
20,2:11
20,3:11
20,4:21
20,5:11
20,6:15
20,7:14
20,8:6
20,9:7
20,10:14
20,11:11
20,12:11
20,13:7
20,14:17
20,24:11
20,30:21
20,41:14
20,57:7
20,59:18
20,68:15
20,69:11
20,70:6
21,1:11
21,2:11
21,3:11
21,4:21
21,5:11
21,6:15
21,7:14
21,8:6
21,9:7
21,10:14
21,11:11
21,12:11
21,13:7
21,14:17
21,23:10
21,24:11
21,30:21
21,41:14
21,57:7
21,59:18
21,68:15
21,69:11
21,70:6
22,1:11
22,2:11
22,3:11
22,4:21
22,5:11
22,6:15
22,7:14
22,8:6
22,9:7
22,10:14
22,11:11
22,12:11
22,13:7
22,14:17
22,23:10
22,24:11
22,30:21
22,41:14
22,57:7
22,59:18
22,68:15
22,69:11
22,70:6
23,24:1
23,25:4
23,30:11
23,33:8
23,41:4
23,57:3
23,58:10
23,59:8
23,68:5
23,69:1
23,70:4
24,4:10
24,6:4
24,7:3
24,8:5
24,9:4
24,10:3
24,13:4
24,14:6
24,15:10
24,16:4
24,17:3
24,18:9
24,19:6
24,20:11
24,21:11
24,22:11
24,23:1
24,25:3
24,30:10
24,31:1
24,32:1
24,33:7
24,34:7
24,41:3
24,57:4
24,58:11
24,59:7
24,68:4
24,70:5
25,26:14
25,27:16
25,28:16
25,29:16
25,30:7
25,31:4
25,32:4
25,33:4
25,34:4
25,57:7
25,58:14
25,59:4
25,68:1
25,69:3
25,70:8
26,27:2
26,28:2
26,29:2
26,30:21
26,31:10
26,32:10
26,33:18
26,34:18
26,41:14
26,57:7
26,59:18
26,68:15
26,69:11
26,70:6
27,26:2
27,30:23
27,31:12
27,32:12
27,33:20
27,34:20
27,35:2
27,41:16
27,57:9
27,58:2
27,59:20
27,68:17
27,69:13
27,70:8
28,26:2
28,30:23
28,31:12
28,32:12
28,33:20
28,34:20
28,35:2
28,41:16
28,57:9
28,58:2
28,59:20
28,68:17
28,69:13
28,70:8
29,26:2
29,30:23
29,31:12
29,32:12
29,33:20
29,34:20
29,35:2
29,41:16
29,57:9
29,58:2
29,59:20
29,68:17
29,69:13
29,70:8
30,1:10
30,2:10
30,3:10
30,6:6
30,7:7
30,8:15
30,9:14
30,10:7
30,11:10
30,12:10
30,13:14
30,14:4
30,16:14
30,17:7
30,18:19
30,19:4
30,20:21
30,21:21
30,22:21
30,23:11
30,24:10
30,25:7
30,26:21
30,27:23
30,28:23
30,29:23
30,31:11
30,33:3
30,34:3
30,41:7
30,57:14
30,58:21
30,59:3
30,68:6
30,69:10
30,70:15
31,24:1
31,25:4
31,26:10
31,27:12
31,28:12
31,29:12
31,33:8
31,34:8
31,41:4
31,57:3
31,58:10
31,59:8
31,68:5
31,69:1
31,70:4
32,24:1
32,25:4
32,26:10
32,27:12
32,28:12
32,29:12
32,33:8
32,34:8
32,35:10
32,41:4
32,57:3
32,58:10
32,59:8
32,68:5
32,69:1
32,70:4
33,24:7
33,25:4
33,26:18
33,27:20
33,28:20
33,29:20
33,30:3
33,31:8
33,32:8
33,41:4
33,57:11
33,58:18
33,68:3
33,69:7
33,70:12
34,24:7
34,25:4
34,26:18
34,27:20
34,28:20
34,29:20
34,30:3
34,31:8
34,32:8
34,35:18
34,41:4
34,57:11
34,58:18
34,68:3
34,69:7
34,70:12
35,36:18
35,41:14
35,48:18
35,53:21
35,56:18
35,57:7
35,59:18
35,60:2
35,61:2
35,68:15
35,69:11
35,70:6
36,41:4
36,44:18
36,45:3
36,46:3
36,49:1
36,51:18
36,52:5
36,53:3
36,54:5
36,55:1
36,57:11
36,58:18
36,60:16
36,61:16
36,62:18
36,63:9
36,65:1
36,66:16
36,67:16
36,68:3
36,69:7
36,70:12
37,41:4
37,44:18
37,45:3
37,46:3
37,49:1
37,51:18
37,52:5
37,53:3
37,54:5
37,55:1
37,57:11
37,58:18
37,60:16
37,61:16
37,62:18
37,63:9
37,65:1
37,66:16
37,67:16
37,68:3
37,69:7
37,70:12
38,41:4
38,44:18
38,45:3
38,46:3
38,49:1
38,51:18
38,52:5
38,53:3
38,54:5
38,55:1
38,57:11
38,58:18
38,60:16
38,61:16
38,62:18
38,63:9
38,65:1
38,66:16
38,67:16
38,68:3
38,69:7
38,70:12
39,41:4
39,44:18
39,45:3
39,46:3
39,49:1
39,51:18
39,52:5
39,53:3
39,54:5
39,55:1
39,57:11
39,58:18
39,60:16
39,61:16
39,62:18
39,63:9
39,65:1
39,66:16
39,67:16
39,68:3
39,69:7
39,70:12
40,41:4
40,42:16
40,44:18
40,45:3
40,46:3
40,49:1
40,51:18
40,52:5
40,53:3
40,54:5
40,55:1
40,57:11
40,58:18
40,60:16
40,61:16
40,62:18
40,63:9
40,65:1
40,66:16
40,67:16
40,68:3
40,69:7
40,70:12
41,2:3
41,3:3
41,4:7
41,5:3
41,6:1
41,8:8
41,9:7
41,11:3
41,12:3
41,13:7
41,14:3
41,15:7
41,16:7
41,18:12
41,19:3
41,20:14
41,21:14
41,22:14
41,23:4
41,24:3
41,26:14
41,27:16
41,28:16
41,29:16
41,30:7
41,31:4
41,32:4
41,33:4
41,34:4
41,35:14
41,36:4
41,37:4
41,38:4
41,39:4
41,40:4
41,42:12
41,44:14
41,45:7
41,46:7
41,47:4
41,48:4
41,49:3
41,51:14
41,52:1
41,53:7
41,54:1
41,55:3
41,56:4
41,57:7
41,58:14
41,59:4
41,60:12
41,61:12
41,62:14
41,63:5
41,64:4
41,65:3
41,66:12
41,67:12
41,68:1
41,69:3
41,70:8
42,44:2
42,45:19
42,46:19
42,47:16
42,48:16
42,49:15
42,51:2
42,52:11
42,53:19
42,54:11
42,55:15
42,56:16
42,57:5
42,58:2
42,59:16
42,62:2
42,63:7
42,64:16
42,65:15
42,68:13
42,69:9
42,70:4
43,44:2
43,45:19
43,46:19
43,47:16
43,48:16
43,49:15
43,50:15
43,51:2
43,52:11
43,53:19
43,54:11
43,55:15
43,56:16
43,57:5
43,58:2
43,59:16
43,62:2
43,63:7
43,64:16
43,65:15
43,68:13
43,69:9
43,70:4
44,36:18
44,37:18
44,38:18
44,39:18
44,40:18
44,41:14
44,42:2
44,43:2
44,45:21
44,48:18
44,49:17
44,52:13
44,53:21
44,54:13
44,55:17
44,56:18
44,57:7
44,59:18
44,60:2
44,61:2
44,63:9
44,64:18
44,65:17
44,66:2
44,67:2
44,68:15
44,69:11
44,70:6
45,36:3
45,37:3
45,38:3
45,39:3
45,40:3
45,41:7
45,42:19
45,43:19
45,48:3
45,49:4
45,51:21
45,52:8
45,54:8
45,55:4
45,56:3
45,57:14
45,58:21
45,59:3
45,60:19
45,61:19
45,62:21
45,63:12
45,64:3
45,65:4
45,66:19
45,67:19
45,68:6
45,69:10
45,70:15
46,36:3
46,37:3
46,38:3
46,39:3
46,40:3
46,41:7
46,42:19
46,43:19
46,47:3
46,48:3
46,49:4
46,51:21
46,52:8
46,54:8
46,55:4
46,56:3
46,57:14
46,58:21
46,59:3
46,60:19
46,61:19
46,62:21
46,63:12
46,64:3
46,65:4
46,66:19
46,67:19
46,68:6
46,69:10
46,70:15
47,41:4
47,42:16
47,43:16
47,49:1
47,50:1
47,51:18
47,52:5
47,53:3
47,54:5
47,55:1
47,57:11
47,58:18
47,60:16
47,61:16
47,62:18
47,63:9
47,65:1
47,66:16
47,67:16
47,68:3
47,69:7
47,70:12
48,41:4
48,42:16
48,43:16
48,44:18
48,45:3
48,46:3
48,49:1
48,51:18
48,52:5
48,53:3
48,54:5
48,55:1
48,57:11
48,58:18
48,60:16
48,61:16
48,62:18
48,63:9
48,65:1
48,66:16
48,67:16
48,68:3
48,69:7
48,70:12
49,36:1
49,37:1
49,38:1
49,39:1
49,40:1
49,41:3
49,42:15
49,43:15
49,44:17
49,45:4
49,46:4
49,47:1
49,51:17
49,52:4
49,53:4
49,54:4
49,56:1
49,57:10
49,58:17
49,59:1
49,60:15
49,61:15
49,62:17
49,63:8
49,64:1
49,66:15
49,67:15
49,68:2
49,69:6
49,70:11
50,51:17
50,52:4
50,53:4
50,54:4
50,56:1
50,57:10
50,58:17
50,59:1
50,60:15
50,61:15
50,62:17
50,63:8
50,64:1
50,66:15
50,67:15
50,68:2
50,69:6
50,70:11
51,36:18
51,37:18
51,38:18
51,39:18
51,40:18
51,41:14
51,42:2
51,43:2
51,45:21
51,46:21
51,47:18
51,48:18
51,49:17
51,50:17
51,52:13
51,53:21
51,56:18
51,57:7
51,59:18
51,60:2
51,61:2
51,63:9
51,64:18
51,65:17
51,66:2
51,67:2
51,68:15
51,69:11
51,70:6
52,36:5
52,37:5
52,38:5
52,39:5
52,40:5
52,41:1
52,42:11
52,43:11
52,44:13
52,45:8
52,46:8
52,47:5
52,48:5
52,49:4
52,50:4
52,53:8
52,56:5
52,57:6
52,58:13
52,59:5
52,60:11
52,61:11
52,62:13
52,63:4
52,64:5
52,65:4
52,66:11
52,67:11
52,68:2
52,69:2
52,70:7
53,36:3
53,37:3
53,38:3
53,39:3
53,40:3
53,41:7
53,42:19
53,43:19
53,44:21
53,47:3
53,48:3
53,49:4
53,50:4
53,51:21
53,52:8
53,54:8
53,56:3
53,57:14
53,58:21
53,59:3
53,60:19
53,61:19
53,62:21
53,63:12
53,64:3
53,65:4
53,66:19
53,67:19
53,68:6
53,69:10
53,70:15
54,36:5
54,37:5
54,38:5
54,39:5
54,40:5
54,41:1
54,42:11
54,43:11
54,44:13
54,45:8
54,46:8
54,47:5
54,48:5
54,49:4
54,50:4
54,55:4
54,56:5
54,57:6
54,58:13
54,59:5
54,60:11
54,61:11
54,62:13
54,63:4
54,64:5
54,65:4
54,66:11
54,67:11
54,68:2
54,69:2
54,70:7
55,36:1
55,37:1
55,38:1
55,39:1
55,40:1
55,41:3
55,42:15
55,43:15
55,44:17
55,45:4
55,46:4
55,47:1
55,48:1
55,56:1
55,57:10
55,58:17
55,59:1
55,60:15
55,61:15
55,62:17
55,63:8
55,64:1
55,66:15
55,67:15
55,68:2
55,69:6
55,70:11
56,41:4
56,42:16
56,43:16
56,44:18
56,45:3
56,46:3
56,49:1
56,50:1
56,51:18
56,52:5
56,53:3
56,54:5
56,55:1
56,57:11
56,58:18
56,60:16
56,61:16
56,62:18
56,63:9
56,65:1
56,66:16
56,67:16
56,68:3
56,69:7
56,70:12
57,1:4
57,2:4
57,3:4
57,4:14
57,5:4
57,6:8
57,7:7
57,8:1
57,10:7
57,11:4
57,12:4
57,14:10
57,20:7
57,21:7
57,22:7
57,23:3
57,24:4
57,25:7
57,26:7
57,27:9
57,28:9
57,29:9
57,30:14
57,31:3
57,32:3
57,33:11
57,34:11
57,35:7
57,36:11
57,37:11
57,38:11
57,39:11
57,40:11
57,41:7
57,42:5
57,43:5
57,44:7
57,45:14
57,46:14
57,47:11
57,48:11
57,49:10
57,50:10
57,51:7
57,52:6
57,53:14
57,54:6
57,55:10
57,56:11
57,58:7
57,61:5
57,62:7
57,63:2
57,64:11
57,65:10
57,66:5
57,67:5
57,68:8
57,69:4
57,70:1
58,1:11
58,2:11
58,3:11
58,4:21
58,5:11
58,6:15
58,7:14
58,8:6
58,9:7
58,10:14
58,11:11
58,12:11
58,13:7
58,14:17
58,23:10
58,24:11
58,25:14
58,27:2
58,28:2
58,29:2
58,30:21
58,31:10
58,32:10
58,33:18
58,34:18
58,36:18
58,37:18
58,38:18
58,39:18
58,40:18
58,41:14
58,42:2
58,43:2
58,45:21
58,46:21
58,47:18
58,48:18
58,49:17
58,50:17
58,52:13
58,53:21
58,54:13
58,55:17
58,56:18
58,59:18
58,61:2
58,63:9
58,64:18
58,65:17
58,66:2
58,67:2
58,68:15
58,69:11
58,70:6
59,1:7
59,2:7
59,3:7
59,4:3
59,5:7
59,6:3
59,7:4
59,8:12
59,9:11
59,10:4
59,11:7
59,12:7
59,13:11
59,14:1
59,20:18
59,21:18
59,22:18
59,23:8
59,24:7
59,25:4
59,26:18
59,27:20
59,28:20
59,29:20
59,30:3
59,31:8
59,32:8
59,35:18
59,41:4
59,42:16
59,43:16
59,44:18
59,45:3
59,46:3
59,49:1
59,50:1
59,51:18
59,52:5
59,53:3
59,54:5
59,55:1
59,60:16
59,61:16
59,62:18
59,63:9
59,65:1
59,66:16
59,67:16
59,68:3
59,69:7
59,70:12
60,36:16
60,37:16
60,38:16
60,39:16
60,40:16
60,41:12
60,44:2
60,45:19
60,46:19
60,47:16
60,48:16
60,49:15
60,50:15
60,51:2
60,52:11
60,53:19
60,54:11
60,55:15
60,56:16
60,62:2
60,63:7
60,64:16
60,65:15
60,68:13
60,69:9
60,70:4
61,36:16
61,37:16
61,38:16
61,39:16
61,40:16
61,41:12
61,44:2
61,45:19
61,46:19
61,47:16
61,48:16
61,49:15
61,50:15
61,51:2
61,52:11
61,53:19
61,54:11
61,55:15
61,56:16
61,57:5
61,58:2
61,59:16
61,62:2
61,63:7
61,64:16
61,65:15
61,68:13
61,69:9
61,70:4
62,36:18
62,37:18
62,38:18
62,39:18
62,40:18
62,41:14
62,42:2
62,43:2
62,45:21
62,46:21
62,47:18
62,48:18
62,49:17
62,50:17
62,52:13
62,53:21
62,54:13
62,55:17
62,56:18
62,57:7
62,59:18
62,60:2
62,61:2
62,63:9
62,68:15
62,69:11
62,70:6
63,36:9
63,37:9
63,38:9
63,39:9
63,40:9
63,41:5
63,42:7
63,43:7
63,44:9
63,45:12
63,46:12
63,47:9
63,48:9
63,49:8
63,50:8
63,51:9
63,52:4
63,53:12
63,54:4
63,55:8
63,56:9
63,57:2
63,58:9
63,59:9
63,60:7
63,61:7
63,64:9
63,68:6
63,69:2
63,70:3
64,41:4
64,42:16
64,43:16
64,44:18
64,45:3
64,46:3
64,49:1
64,50:1
64,51:18
64,52:5
64,53:3
64,54:5
64,55:1
64,57:11
64,58:18
64,60:16
64,61:16
64,65:1
64,66:16
64,67:16
64,68:3
64,69:7
64,70:12
65,36:1
65,37:1
65,38:1
65,39:1
65,40:1
65,41:3
65,42:15
65,43:15
65,44:17
65,45:4
65,46:4
65,47:1
65,48:1
65,51:17
65,52:4
65,53:4
65,54:4
65,56:1
65,57:10
65,58:17
65,59:1
65,60:15
65,66:15
65,67:15
65,68:2
65,69:6
65,70:11
66,36:16
66,37:16
66,38:16
66,39:16
66,40:16
66,41:12
66,44:2
66,45:19
66,46:19
66,47:16
66,48:16
66,49:15
66,50:15
66,51:2
66,52:11
66,53:19
66,54:11
66,55:15
66,56:16
66,57:5
66,58:2
66,59:16
66,65:15
66,68:13
66,69:9
66,70:4
67,36:16
67,37:16
67,38:16
67,39:16
67,40:16
67,41:12
67,44:2
67,45:19
67,46:19
67,47:16
67,48:16
67,49:15
67,50:15
67,51:2
67,52:11
67,53:19
67,54:11
67,55:15
67,56:16
67,57:5
67,58:2
67,59:16
67,65:15
67,68:13
67,69:9
67,70:4
68,4:6
68,5:4
68,7:1
68,8:9
68,9:8
68,10:1
68,11:4
68,12:4
68,13:8
68,14:2
68,15:6
68,16:8
68,17:1
68,18:13
68,19:2
68,20:15
68,21:15
68,22:15
68,23:5
68,24:4
68,25:1
68,26:15
68,27:17
68,28:17
68,29:17
68,30:6
68,31:5
68,32:5
68,33:3
68,34:3
68,35:15
68,36:3
68,37:3
68,38:3
68,39:3
68,40:3
68,41:1
68,42:13
68,43:13
68,44:15
68,45:6
68,46:6
68,47:3
68,48:3
68,49:2
68,50:2
68,51:15
68,52:2
68,53:6
68,54:2
68,55:2
68,56:3
68,57:8
68,58:15
68,59:3
68,60:13
68,61:13
68,62:15
68,63:6
68,64:3
68,65:2
68,66:13
68,67:13
68,69:4
68,70:9
69,4:10
69,6:4
69,7:3
69,8:5
69,9:4
69,10:3
69,13:4
69,14:6
69,15:10
69,16:4
69,17:3
69,18:9
69,19:6
69,20:11
69,21:11
69,22:11
69,23:1
69,25:3
69,26:11
69,27:13
69,28:13
69,29:13
69,30:10
69,31:1
69,32:1
69,33:7
69,34:7
69,35:11
69,36:7
69,37:7
69,38:7
69,39:7
69,40:7
69,41:3
69,42:9
69,43:9
69,44:11
69,45:10
69,46:10
69,47:7
69,48:7
69,49:6
69,50:6
69,51:11
69,52:2
69,53:10
69,54:2
69,55:6
69,56:7
69,57:4
69,58:11
69,59:7
69,60:9
69,61:9
69,62:11
69,63:2
69,64:7
69,65:6
69,66:9
69,67:9
69,68:4
69,70:5
70,2:5
70,3:5
70,4:15
70,5:5
70,6:9
70,7:8
70,9:1
70,10:8
70,11:5
70,12:5
70,13:1
70,14:11
70,15:15
70,16:1
70,17:8
70,18:4
70,19:11
70,20:6
70,21:6
70,22:6
70,23:4
70,24:5
70,25:8
70,26:6
70,27:8
70,28:8
70,29:8
70,30:15
70,31:4
70,32:4
70,33:12
70,34:12
70,35:6
70,36:12
70,37:12
70,38:12
70,39:12
70,40:12
70,41:8
70,42:4
70,43:4
70,44:6
70,45:15
70,46:15
70,47:12
70,48:12
70,49:11
70,50:11
70,51:6
70,52:7
70,53:15
70,54:7
70,55:11
70,56:12
70,57:1
70,58:6
70,59:12
70,60:4
70,61:4
70,62:6
70,63:3
70,64:12
70,65:11
70,66:4
70,67:4
70,68:9
70,69:5

<setup times backward>
1,9:4
1,16:4
1,18:9
1,20:11
1,21:11
1,22:11
1,57:4
1,58:11
2,9:4
2,16:4
2,18:9
2,20:11
2,21:11
2,22:11
2,57:4
2,58:11
2,70:5
3,9:4
3,16:4
3,18:9
3,20:11
3,21:11
3,22:11
3,57:4
3,58:11
3,70:5
4,1:10
4,2:10
4,3:10
4,5:10
4,9:14
4,10:7
4,11:10
4,16:14
4,17:7
4,18:19
4,19:4
4,20:21
4,21:21
4,22:21
4,24:10
4,41:7
4,57:14
4,58:21
4,59:3
4,68:6
4,69:10
4,70:15
5,9:4
5,16:4
5,18:9
5,20:11
5,21:11
5,22:11
5,57:4
5,58:11
5,70:5
6,1:4
6,2:4
6,3:4
6,5:4
6,7:1
6,9:8
6,10:1
6,11:4
6,16:8
6,17:1
6,18:13
6,20:15
6,21:15
6,22:15
6,24:4
6,41:1
6,57:8
6,58:15
6,69:4
6,70:9
7,1:3
7,2:3
7,3:3
7,5:3
7,9:7
7,11:3
7,16:7
7,18:12
7,20:14
7,21:14
7,22:14
7,24:3
7,57:7
7,58:14
7,69:3
7,70:8
8,18:4
8,20:6
8,21:6
8,22:6
8,58:6
9,8:1
9,18:5
9,20:7
9,21:7
9,22:7
9,58:7
9,70:1
10,1:3
10,2:3
10,3:3
10,5:3
10,8:8
10,9:7
10,16:7
10,18:12
10,20:14
10,21:14
10,22:14
10,24:3
10,57:7
10,58:14
10,69:3
10,70:8
11,8:5
11,9:4
11,16:4
11,18:9
11,20:11
11,21:11
11,22:11
11,57:4
11,58:11
11,70:5
12,8:5
12,9:4
12,16:4
12,18:9
12,20:11
12,21:11
12,22:11
12,57:4
12,58:11
12,70:5
13,8:1
13,18:5
13,20:7
13,21:7
13,22:7
13,58:7
13,70:1
14,1:6
14,2:6
14,3:6
14,5:6
14,6:2
14,7:3
14,8:11
14,9:10
14,10:3
14,11:6
14,12:6
14,13:10
14,16:10
14,17:3
14,18:15
14,20:17
14,21:17
14,22:17
14,24:6
14,41:3
14,57:10
14,58:17
14,68:2
14,69:6
14,70:11
15,1:10
15,2:10
15,3:10
15,5:10
15,6:6
15,7:7
15,8:15
15,9:14
15,10:7
15,11:10
15,12:10
15,13:14
15,14:4
15,24:10
15,41:7
15,68:6
15,69:10
15,70:15
16,8:1
16,70:1
17,1:3
17,2:3
17,3:3
17,5:3
17,8:8
17,9:7
17,11:3
17,12:3
17,13:7
17,16:7
17,18:12
17,24:3
17,69:3
17,70:8
19,1:6
19,2:6
19,3:6
19,5:6
19,6:2
19,7:3
19,8:11
19,9:10
19,10:3
19,11:6
19,12:6
19,13:10
19,16:10
19,17:3
19,18:15
19,24:6
19,41:3
19,68:2
19,69:6
19,70:11
23,8:4
23,9:3
23,13:3
23,16:3
23,18:8
23,20:10
23,21:10
23,22:10
23,57:3
23,58:10
23,70:4
24,8:5
24,9:4
24,13:4
24,16:4
24,18:9
24,20:11
24,21:11
24,22:11
24,23:1
24,31:1
24,32:1
24,57:4
24,58:11
24,70:5
25,1:3
25,2:3
25,3:3
25,5:3
25,8:8
25,9:7
25,11:3
25,12:3
25,13:7
25,16:7
25,18:12
25,20:14
25,21:14
25,22:14
25,23:4
25,24:3
25,31:4
25,32:4
25,57:7
25,58:14
25,69:3
25,70:8
26,27:2
26,28:2
26,29:2
30,1:10
30,2:10
30,3:10
30,5:10
30,6:6
30,7:7
30,8:15
30,9:14
30,10:7
30,11:10
30,12:10
30,13:14
30,14:4
30,16:14
30,17:7
30,18:19
30,19:4
30,20:21
30,21:21
30,22:21
30,23:11
30,24:10
30,25:7
30,26:21
30,27:23
30,28:23
30,29:23
30,33:3
30,34:3
30,41:7
30,57:14
30,58:21
30,59:3
30,68:6
30,69:10
30,70:15
31,8:4
31,9:3
31,13:3
31,16:3
31,18:8
31,20:10
31,21:10
31,22:10
31,26:10
31,27:12
31,28:12
31,29:12
31,57:3
31,58:10
31,70:4
32,8:4
32,9:3
32,13:3
32,16:3
32,18:8
32,20:10
32,21:10
32,22:10
32,26:10
32,27:12
32,28:12
32,29:12
32,57:3
32,58:10
32,70:4
33,1:7
33,2:7
33,3:7
33,5:7
33,6:3
33,7:4
33,8:12
33,9:11
33,10:4
33,11:7
33,12:7
33,13:11
33,14:1
33,16:11
33,17:4
33,18:16
33,19:1
33,20:18
33,21:18
33,22:18
33,23:8
33,24:7
33,25:4
33,26:18
33,27:20
33,28:20
33,29:20
33,31:8
33,32:8
33,41:4
33,57:11
33,58:18
33,68:3
33,69:7
33,70:12
34,1:7
34,2:7
34,3:7
34,5:7
34,6:3
34,7:4
34,8:12
34,9:11
34,10:4
34,11:7
34,12:7
34,13:11
34,14:1
34,16:11
34,17:4
34,18:16
34,19:1
34,20:18
34,21:18
34,22:18
34,23:8
34,24:7
34,25:4
34,26:18
34,27:20
34,28:20
34,29:20
34,31:8
34,32:8
34,41:4
34,57:11
34,58:18
34,68:3
34,69:7
34,70:12
35,27:2
35,28:2
35,29:2
36,1:7
36,2:7
36,3:7
36,5:7
36,6:3
36,7:4
36,8:12
36,9:11
36,10:4
36,11:7
36,12:7
36,13:11
36,14:1
36,16:11
36,17:4
36,18:16
36,19:1
36,20:18
36,21:18
36,22:18
36,23:8
36,24:7
36,25:4
36,26:18
36,27:20
36,28:20
36,29:20
36,31:8
36,32:8
36,35:18
36,41:4
36,44:18
36,49:1
36,51:18
36,52:5
36,54:5
36,55:1
36,57:11
36,58:18
36,60:16
36,61:16
36,62:18
36,63:9
36,65:1
36,66:16
36,67:16
36,68:3
36,69:7
36,70:12
37,1:7
37,2:7
37,3:7
37,5:7
37,6:3
37,7:4
37,8:12
37,9:11
37,10:4
37,11:7
37,12:7
37,13:11
37,14:1
37,16:11
37,17:4
37,18:16
37,19:1
37,20:18
37,21:18
37,22:18
37,23:8
37,24:7
37,25:4
37,26:18
37,27:20
37,28:20
37,29:20
37,31:8
37,32:8
37,35:18
37,41:4
37,44:18
37,49:1
37,51:18
37,52:5
37,54:5
37,55:1
37,57:11
37,58:18
37,60:16
37,61:16
37,62:18
37,63:9
37,65:1
37,66:16
37,67:16
37,68:3
37,69:7
37,70:12
38,1:7
38,2:7
38,3:7
38,5:7
38,6:3
38,7:4
38,8:12
38,9:11
38,10:4
38,11:7
38,12:7
38,13:11
38,14:1
38,16:11
38,17:4
38,18:16
38,19:1
38,20:18
38,21:18
38,22:18
38,23:8
38,24:7
38,25:4
38,26:18
38,27:20
38,28:20
38,29:20
38,31:8
38,32:8
38,35:18
38,41:4
38,44:18
38,49:1
38,51:18
38,52:5
38,54:5
38,55:1
38,57:11
38,58:18
38,60:16
38,61:16
38,62:18
38,63:9
38,65:1
38,66:16
38,67:16
38,68:3
38,69:7
38,70:12
39,1:7
39,2:7
39,3:7
39,5:7
39,6:3
39,7:4
39,8:12
39,9:11
39,10:4
39,11:7
39,12:7
39,13:11
39,14:1
39,16:11
39,17:4
39,18:16
39,19:1
39,20:18
39,21:18
39,22:18
39,23:8
39,24:7
39,25:4
39,26:18
39,27:20
39,28:20
39,29:20
39,31:8
39,32:8
39,35:18
39,41:4
39,44:18
39,49:1
39,51:18
39,52:5
39,54:5
39,55:1
39,57:11
39,58:18
39,60:16
39,61:16
39,62:18
39,63:9
39,65:1
39,66:16
39,67:16
39,68:3
39,69:7
39,70:12
40,1:7
40,2:7
40,3:7
40,5:7
40,6:3
40,7:4
40,8:12
40,9:11
40,10:4
40,11:7
40,12:7
40,13:11
40,14:1
40,16:11
40,17:4
40,18:16
40,19:1
40,20:18
40,21:18
40,22:18
40,23:8
40,24:7
40,25:4
40,26:18
40,27:20
40,28:20
40,29:20
40,31:8
40,32:8
40,35:18
40,41:4
40,44:18
40,49:1
40,51:18
40,52:5
40,54:5
40,55:1
40,57:11
40,58:18
40,60:16
40,61:16
40,62:18
40,63:9
40,65:1
40,66:16
40,67:16
40,68:3
40,69:7
40,70:12
41,1:3
41,2:3
41,3:3
41,5:3
41,8:8
41,9:7
41,11:3
41,12:3
41,13:7
41,16:7
41,18:12
41,20:14
41,21:14
41,22:14
41,23:4
41,24:3
41,26:14
41,27:16
41,28:16
41,29:16
41,31:4
41,32:4
41,35:14
41,44:14
41,51:14
41,52:1
41,54:1
41,57:7
41,58:14
41,60:12
41,61:12
41,62:14
41,63:5
41,66:12
41,67:12
41,69:3
41,70:8
42,20:2
42,21:2
42,22:2
42,26:2
42,27:4
42,28:4
42,29:4
42,35:2
42,44:2
42,51:2
42,58:2
42,62:2
43,20:2
43,21:2
43,22:2
43,26:2
43,27:4
43,28:4
43,29:4
43,35:2
43,44:2
43,51:2
43,58:2
43,62:2
44,27:2
44,28:2
44,29:2
45,1:10
45,2:10
45,3:10
45,5:10
45,6:6
45,7:7
45,8:15
45,9:14
45,10:7
45,11:10
45,12:10
45,13:14
45,14:4
45,16:14
45,17:7
45,18:19
45,19:4
45,20:21
45,21:21
45,22:21
45,23:11
45,24:10
45,25:7
45,26:21
45,27:23
45,28:23
45,29:23
45,31:11
45,32:11
45,33:3
45,34:3
45,35:21
45,36:3
45,37:3
45,38:3
45,39:3
45,40:3
45,41:7
45,42:19
45,43:19
45,44:21
45,48:3
45,49:4
45,51:21
45,52:8
45,54:8
45,55:4
45,56:3
45,57:14
45,58:21
45,59:3
45,60:19
45,61:19
45,62:21
45,63:12
45,64:3
45,65:4
45,66:19
45,67:19
45,68:6
45,69:10
45,70:15
46,1:10
46,2:10
46,3:10
46,5:10
46,6:6
46,7:7
46,8:15
46,9:14
46,10:7
46,11:10
46,12:10
46,13:14
46,14:4
46,16:14
46,17:7
46,18:19
46,19:4
46,20:21
46,21:21
46,22:21
46,23:11
46,24:10
46,25:7
46,26:21
46,27:23
46,28:23
46,29:23
46,31:11
46,32:11
46,33:3
46,34:3
46,35:21
46,36:3
46,37:3
46,38:3
46,39:3
46,40:3
46,41:7
46,42:19
46,43:19
46,44:21
46,48:3
46,49:4
46,51:21
46,52:8
46,54:8
46,55:4
46,56:3
46,57:14
46,58:21
46,59:3
46,60:19
46,61:19
46,62:21
46,63:12
46,64:3
46,65:4
46,66:19
46,67:19
46,68:6
46,69:10
46,70:15
47,1:7
47,2:7
47,3:7
47,5:7
47,6:3
47,7:4
47,8:12
47,9:11
47,10:4
47,11:7
47,12:7
47,13:11
47,14:1
47,16:11
47,17:4
47,18:16
47,19:1
47,20:18
47,21:18
47,22:18
47,23:8
47,24:7
47,25:4
47,26:18
47,27:20
47,28:20
47,29:20
47,31:8
47,32:8
47,35:18
47,41:4
47,42:16
47,43:16
47,44:18
47,49:1
47,51:18
47,52:5
47,54:5
47,55:1
47,57:11
47,58:18
47,60:16
47,61:16
47,62:18
47,63:9
47,65:1
47,66:16
47,67:16
47,68:3
47,69:7
47,70:12
48,1:7
48,2:7
48,3:7
48,5:7
48,6:3
48,7:4
48,8:12
48,9:11
48,10:4
48,11:7
48,12:7
48,13:11
48,14:1
48,16:11
48,17:4
48,18:16
48,19:1
48,20:18
48,21:18
48,22:18
48,23:8
48,24:7
48,25:4
48,26:18
48,27:20
48,28:20
48,29:20
48,31:8
48,32:8
48,35:18
48,41:4
48,42:16
48,43:16
48,44:18
48,51:18
48,52:5
48,54:5
48,55:1
48,57:11
48,58:18
48,60:16
48,61:16
48,62:18
48,63:9
48,65:1
48,66:16
48,67:16
48,68:3
48,69:7
48,70:12
49,1:6
49,2:6
49,3:6
49,5:6
49,6:2
49,7:3
49,8:11
49,9:10
49,10:3
49,11:6
49,12:6
49,13:10
49,16:10
49,17:3
49,18:15
49,20:17
49,21:17
49,22:17
49,23:7
49,24:6
49,25:3
49,26:17
49,27:19
49,28:19
49,29:19
49,31:7
49,32:7
49,35:17
49,41:3
49,42:15
49,43:15
49,44:17
49,51:17
49,52:4
49,54:4
49,57:10
49,58:17
49,60:15
49,61:15
49,62:17
49,63:8
49,66:15
49,67:15
49,68:2
49,69:6
49,70:11
50,1:6
50,2:6
50,3:6
50,5:6
50,6:2
50,7:3
50,8:11
50,9:10
50,10:3
50,11:6
50,12:6
50,13:10
50,16:10
50,17:3
50,18:15
50,20:17
50,21:17
50,22:17
50,23:7
50,24:6
50,25:3
50,26:17
50,27:19
50,28:19
50,29:19
50,31:7
50,32:7
50,35:17
50,41:3
50,42:15
50,43:15
50,44:17
50,51:17
50,52:4
50,54:4
50,57:10
50,58:17
50,60:15
50,61:15
50,62:17
50,63:8
50,66:15
50,67:15
50,68:2
50,69:6
50,70:11
51,27:2
51,28:2
51,29:2
52,1:2
52,2:2
52,3:2
52,5:2
52,8:7
52,9:6
52,11:2
52,12:2
52,13:6
52,16:6
52,18:11
52,20:13
52,21:13
52,22:13
52,23:3
52,24:2
52,26:13
52,27:15
52,28:15
52,29:15
52,31:3
52,32:3
52,35:13
52,42:11
52,43:11
52,44:13
52,51:13
52,57:6
52,58:13
52,60:11
52,61:11
52,62:13
52,63:4
52,66:11
52,67:11
52,69:2
52,70:7
53,1:10
53,2:10
53,3:10
53,5:10
53,6:6
53,7:7
53,8:15
53,9:14
53,10:7
53,11:10
53,12:10
53,13:14
53,14:4
53,16:14
53,17:7
53,18:19
53,19:4
53,20:21
53,21:21
53,22:21
53,23:11
53,24:10
53,25:7
53,26:21
53,27:23
53,28:23
53,29:23
53,31:11
53,32:11
53,33:3
53,34:3
53,35:21
53,36:3
53,37:3
53,38:3
53,39:3
53,40:3
53,41:7
53,42:19
53,43:19
53,44:21
53,47:3
53,48:3
53,49:4
53,50:4
53,51:21
53,52:8
53,56:3
53,57:14
53,58:21
53,59:3
53,60:19
53,61:19
53,62:21
53,63:12
53,64:3
53,65:4
53,66:19
53,67:19
53,68:6
53,69:10
53,70:15
54,1:2
54,2:2
54,3:2
54,5:2
54,8:7
54,9:6
54,11:2
54,12:2
54,13:6
54,16:6
54,18:11
54,20:13
54,21:13
54,22:13
54,23:3
54,24:2
54,26:13
54,27:15
54,28:15
54,29:15
54,31:3
54,32:3
54,35:13
54,42:11
54,43:11
54,44:13
54,51:13
54,57:6
54,58:13
54,60:11
54,61:11
54,62:13
54,63:4
54,66:11
54,67:11
54,69:2
54,70:7
55,1:6
55,2:6
55,3:6
55,5:6
55,6:2
55,7:3
55,8:11
55,9:10
55,10:3
55,11:6
55,12:6
55,13:10
55,16:10
55,17:3
55,18:15
55,20:17
55,21:17
55,22:17
55,23:7
55,24:6
55,25:3
55,26:17
55,27:19
55,28:19
55,29:19
55,31:7
55,32:7
55,35:17
55,41:3
55,42:15
55,43:15
55,44:17
55,51:17
55,52:4
55,54:4
55,57:10
55,58:17
55,60:15
55,61:15
55,62:17
55,63:8
55,66:15
55,67:15
55,68:2
55,69:6
55,70:11
56,1:7
56,2:7
56,3:7
56,5:7
56,6:3
56,7:4
56,8:12
56,9:11
56,10:4
56,11:7
56,12:7
56,13:11
56,14:1
56,16:11
56,17:4
56,18:16
56,19:1
56,20:18
56,21:18
56,22:18
56,23:8
56,24:7
56,25:4
56,26:18
56,27:20
56,28:20
56,29:20
56,31:8
56,32:8
56,35:18
56,41:4
56,42:16
56,43:16
56,44:18
56,49:1
56,50:1
56,51:18
56,52:5
56,54:5
56,55:1
56,57:11
56,58:18
56,60:16
56,61:16
56,62:18
56,63:9
56,65:1
56,66:16
56,67:16
56,68:3
56,69:7
56,70:12
57,8:1
57,18:5
57,20:7
57,21:7
57,22:7
57,26:7
57,27:9
57,28:9
57,29:9
57,35:7
57,42:5
57,43:5
57,44:7
57,51:7
57,61:5
57,62:7
57,66:5
57,67:5
57,70:1
58,27:2
58,28:2
58,29:2
59,1:7
59,2:7
59,3:7
59,5:7
59,6:3
59,7:4
59,8:12
59,9:11
59,10:4
59,11:7
59,12:7
59,13:11
59,14:1
59,16:11
59,17:4
59,18:16
59,19:1
59,20:18
59,21:18
59,22:18
59,23:8
59,24:7
59,25:4
59,26:18
59,27:20
59,28:20
59,29:20
59,31:8
59,32:8
59,35:18
59,41:4
59,42:16
59,43:16
59,44:18
59,49:1
59,50:1
59,51:18
59,52:5
59,54:5
59,55:1
59,57:11
59,58:18
59,61:16
59,62:18
59,63:9
59,65:1
59,66:16
59,67:16
59,68:3
59,69:7
59,70:12
60,20:2
60,21:2
60,22:2
60,26:2
60,27:4
60,28:4
60,29:4
60,35:2
60,44:2
60,51:2
60,58:2
60,62:2
61,20:2
61,21:2
61,22:2
61,26:2
61,27:4
61,28:4
61,29:4
61,35:2
61,44:2
61,51:2
61,58:2
61,62:2
62,27:2
62,28:2
62,29:2
63,8:3
63,9:2
63,13:2
63,16:2
63,18:7
63,20:9
63,21:9
63,22:9
63,26:9
63,27:11
63,28:11
63,29:11
63,35:9
63,42:7
63,43:7
63,44:9
63,51:9
63,57:2
63,58:9
63,60:7
63,61:7
63,62:9
63,70:3
64,1:7
64,2:7
64,3:7
64,5:7
64,6:3
64,7:4
64,8:12
64,9:11
64,10:4
64,11:7
64,12:7
64,13:11
64,14:1
64,16:11
64,17:4
64,18:16
64,19:1
64,20:18
64,21:18
64,22:18
64,23:8
64,24:7
64,25:4
64,26:18
64,27:20
64,28:20
64,29:20
64,31:8
64,32:8
64,35:18
64,41:4
64,42:16
64,43:16
64,44:18
64,49:1
64,50:1
64,51:18
64,52:5
64,54:5
64,55:1
64,57:11
64,58:18
64,60:16
64,61:16
64,62:18
64,63:9
64,68:3
64,69:7
64,70:12
65,1:6
65,2:6
65,3:6
65,5:6
65,6:2
65,7:3
65,8:11
65,9:10
65,10:3
65,11:6
65,12:6
65,13:10
65,16:10
65,17:3
65,18:15
65,20:17
65,21:17
65,22:17
65,23:7
65,24:6
65,25:3
65,26:17
65,27:19
65,28:19
65,29:19
65,31:7
65,32:7
65,35:17
65,41:3
65,42:15
65,43:15
65,44:17
65,51:17
65,52:4
65,54:4
65,57:10
65,58:17
65,60:15
65,61:15
65,62:17
65,63:8
65,66:15
65,67:15
65,68:2
65,69:6
65,70:11
66,20:2
66,21:2
66,22:2
66,26:2
66,27:4
66,28:4
66,29:4
66,35:2
66,44:2
66,51:2
66,58:2
66,62:2
67,20:2
67,21:2
67,22:2
67,26:2
67,27:4
67,28:4
67,29:4
67,35:2
67,44:2
67,51:2
67,58:2
67,62:2
68,1:4
68,2:4
68,3:4
68,5:4
68,7:1
68,8:9
68,9:8
68,10:1
68,11:4
68,12:4
68,13:8
68,16:8
68,17:1
68,18:13
68,20:15
68,21:15
68,22:15
68,23:5
68,24:4
68,25:1
68,26:15
68,27:17
68,28:17
68,29:17
68,31:5
68,32:5
68,35:15
68,41:1
68,42:13
68,43:13
68,44:15
68,51:15
68,52:2
68,54:2
68,57:8
68,58:15
68,60:13
68,61:13
68,62:15
68,63:6
68,66:13
68,67:13
68,69:4
68,70:9
69,8:5
69,9:4
69,13:4
69,16:4
69,18:9
69,20:11
69,21:11
69,22:11
69,23:1
69,26:11
69,27:13
69,28:13
69,29:13
69,31:1
69,32:1
69,35:11
69,42:9
69,43:9
69,44:11
69,51:11
69,57:4
69,58:11
69,60:9
69,61:9
69,62:11
69,63:2
69,66:9
69,67:9
69,70:5
70,18:4
70,20:6
70,21:6
70,22:6
70,26:6
70,27:8
70,28:8
70,29:8
70,35:6
70,42:4
70,43:4
70,44:6
70,51:6
70,58:6
70,60:4
70,61:4
70,62:6
70,66:4
70,67:4

<end>

<optimal SALBP-1 value>
23


<rand seed>
467321153

<Lower Bounds>
Lm1=22
Lms1=22
Lm2=14
Lm3=16
Lm4=22
Best=22

<Optimal Stations (Iterations: 10)>
30
